% File represents an instance of a Composite Structure problem to be solved by a CP framework
% Created on 2025-03-26 10:41:55.656
T = 50;
n = 36;
m = 60;
edges = [(1, 2),
(7, 8),
(13, 14),
(19, 20),
(25, 26),
(31, 32),
(2, 3),
(8, 9),
(14, 15),
(20, 21),
(26, 27),
(32, 33),
(4, 3),
(9, 10),
(15, 16),
(21, 22),
(27, 28),
(33, 34),
(4, 5),
(10, 11),
(16, 17),
(22, 23),
(28, 29),
(34, 35),
(6, 5),
(12, 11),
(18, 17),
(23, 24),
(29, 30),
(36, 35),
(7, 1),
(13, 7),
(19, 13),
(25, 19),
(25, 31),
(8, 2),
(14, 8),
(20, 14),
(26, 20),
(26, 32),
(9, 3),
(15, 9),
(21, 15),
(27, 21),
(27, 33),
(4, 10),
(16, 10),
(22, 16),
(28, 22),
(28, 34),
(5, 11),
(17, 11),
(23, 17),
(29, 23),
(29, 35),
(6, 12),
(18, 12),
(18, 24),
(30, 24),
(36, 30)];
counts = [|4, 12, 4, 8,
|4, 8, 4, 6,
|4, 2, 4, 6,
|4, 4, 4, 6,
|4, 2, 4, 6,
|4, 4, 4, 6,
|6, 14, 6, 8,
|6, 8, 6, 8,
|4, 8, 4, 6,
|4, 4, 4, 4,
|4, 2, 4, 2,
|4, 2, 4, 4,
|6, 16, 6, 10,
|6, 14, 6, 8,
|6, 10, 6, 6,
|4, 10, 4, 4,
|4, 6, 4, 2,
|4, 6, 4, 4,
|8, 16, 8, 12,
|6, 16, 6, 10,
|6, 12, 6, 8,
|6, 10, 6, 4,
|4, 10, 4, 2,
|4, 6, 4, 2,
|10, 18, 10, 12,
|8, 18, 8, 10,
|8, 14, 8, 8,
|6, 14, 6, 6,
|6, 12, 6, 2,
|6, 8, 6, 2,
|8, 18, 8, 12,
|8, 14, 8, 10,
|8, 10, 8, 8,
|6, 10, 6, 6,
|6, 8, 6, 2,
|6, 14, 6, 2|];
